decision_x1=[0,2];
decision_x2=[0,2];
decision_x3=[0,2];
decision_x4=[0,2];
decision_x5=[0,2];
decision_x6=[0,2];
decision_x7=[0,2];
decision_x8=[0,2];
decision_x9=[0,2];
decision_x10=[0,2];
random_y1=[0,2];
random_y2=[0,2];
constraint_x4_x1=[
0,0,6.9|
0,1,4.1|
0,2,6.3|
1,0,9.1|
1,1,5.4|
1,2,3.3|
2,0,5.6|
2,1,9.6|
2,2,0.73|
];
constraint_x4_x3=[
0,0,8.8|
0,1,2.4|
0,2,1|
1,0,8.6|
1,1,0.95|
1,2,0.79|
2,0,1.2|
2,1,2.4|
2,2,9|
];
constraint_x5_x1=[
0,0,0.92|
0,1,1.9|
0,2,4.4|
1,0,0.9|
1,1,6.6|
1,2,1.6|
2,0,9.7|
2,1,0.16|
2,2,8.9|
];
constraint_x5_x2=[
0,0,0.64|
0,1,2|
0,2,0.16|
1,0,7.5|
1,1,3.1|
1,2,7.6|
2,0,2.5|
2,1,3.7|
2,2,5.2|
];
constraint_x6_x1=[
0,0,3.6|
0,1,0.061|
0,2,6.7|
1,0,3.2|
1,1,9.4|
1,2,1|
2,0,2|
2,1,9.4|
2,2,6.2|
];
constraint_x6_x2=[
0,0,4.5|
0,1,5.9|
0,2,9.1|
1,0,1.1|
1,1,4.1|
1,2,3.7|
2,0,2.5|
2,1,0.16|
2,2,1.6|
];
constraint_x6_x4=[
0,0,6|
0,1,9.4|
0,2,2.8|
1,0,7.8|
1,1,6.8|
1,2,5|
2,0,5.7|
2,1,3.6|
2,2,4.3|
];
constraint_x6_x5=[
0,0,8.8|
0,1,3.1|
0,2,2.2|
1,0,1.9|
1,1,6.9|
1,2,9.9|
2,0,2.5|
2,1,2.3|
2,2,2.9|
];
constraint_x7_x1=[
0,0,4.7|
0,1,1.2|
0,2,1.8|
1,0,2.8|
1,1,5.3|
1,2,2.2|
2,0,10|
2,1,2.1|
2,2,5.8|
];
constraint_x7_x3=[
0,0,7|
0,1,7.3|
0,2,9.3|
1,0,8.8|
1,1,0.89|
1,2,4.4|
2,0,5.5|
2,1,4.9|
2,2,7.3|
];
constraint_x7_x4=[
0,0,5.7|
0,1,7.9|
0,2,6.3|
1,0,1.5|
1,1,8.3|
1,2,8.6|
2,0,9.9|
2,1,4.9|
2,2,7.5|
];
constraint_x8_x1=[
0,0,4.3|
0,1,1.1|
0,2,9.9|
1,0,3.8|
1,1,5.7|
1,2,7|
2,0,0.015|
2,1,3.4|
2,2,1|
];
constraint_x8_x3=[
0,0,4.1|
0,1,6.9|
0,2,7.4|
1,0,8.3|
1,1,1.2|
1,2,3.8|
2,0,6.1|
2,1,7.2|
2,2,3.2|
];
constraint_x8_x4=[
0,0,1.3|
0,1,5.2|
0,2,3.4|
1,0,3.1|
1,1,1.4|
1,2,2.9|
2,0,9.7|
2,1,1.2|
2,2,4|
];
constraint_x8_x7=[
0,0,1.8|
0,1,2.3|
0,2,6.8|
1,0,7.1|
1,1,1.7|
1,2,8.6|
2,0,7|
2,1,7|
2,2,0.051|
];
constraint_x9_x2=[
0,0,9.3|
0,1,8.1|
0,2,7.7|
1,0,1.4|
1,1,9.5|
1,2,2.3|
2,0,2.1|
2,1,8.6|
2,2,9.9|
];
constraint_x9_x3=[
0,0,8.8|
0,1,5.5|
0,2,1.9|
1,0,0.49|
1,1,0.023|
1,2,2.9|
2,0,3.9|
2,1,6.9|
2,2,5.9|
];
constraint_x9_x4=[
0,0,7.4|
0,1,1.8|
0,2,6.9|
1,0,1.7|
1,1,4|
1,2,7|
2,0,5.7|
2,1,5.9|
2,2,7.5|
];
constraint_x9_x6=[
0,0,0.34|
0,1,5.3|
0,2,6.7|
1,0,1.1|
1,1,4.1|
1,2,10|
2,0,0.34|
2,1,9.9|
2,2,0.99|
];
constraint_x9_x8=[
0,0,6.8|
0,1,7.5|
0,2,7.2|
1,0,4.8|
1,1,4.9|
1,2,5.7|
2,0,7.9|
2,1,8.2|
2,2,0.73|
];
constraint_x10_x2=[
0,0,4.5|
0,1,7.2|
0,2,5.7|
1,0,3.2|
1,1,2.7|
1,2,8.2|
2,0,1.4|
2,1,1.6|
2,2,5.8|
];
constraint_x10_x5=[
0,0,8.1|
0,1,4.3|
0,2,6.2|
1,0,4.8|
1,1,6.5|
1,2,8|
2,0,5|
2,1,2.9|
2,2,6.2|
];
constraint_x10_x7=[
0,0,1.9|
0,1,9.2|
0,2,9.9|
1,0,7.8|
1,1,2.1|
1,2,7.6|
2,0,9.8|
2,1,9.4|
2,2,7|
];
constraint_x1_y1=[
0,0,4|
0,1,3.1|
0,2,8.8|
1,0,1.2|
1,1,7.7|
1,2,4.8|
2,0,2.5|
2,1,9.3|
2,2,4.3|
];
constraint_x2_y2=[
0,0,1.4|
0,1,9.9|
0,2,0.28|
1,0,9.5|
1,1,0.66|
1,2,0.83|
2,0,5.5|
2,1,0.26|
2,2,7.5|
];
initial_distribution_y1=[0.35,0.5,0.15];
initial_distribution_y2=[0.41,0.32,0.26];
transition_y1=[
0.67,0.074,0.26|
0.57,0.15,0.28|
0.33,0.35,0.32|
];
transition_y2=[
0.31,0.21,0.48|
0.014,0.55,0.44|
0.54,0.13,0.34|
];
